# Objective value = 32
C 32
f(1,0) 0
x(2,1,0) 1
f(2,0) 1
x(1,3,0) 0.5
x(3,3,0) 0
f(3,0) 0.5
f(1,1) 0
x(2,1,1) 0
f(1,2) 1
x(2,1,2) 0
f(1,3) 1
x(2,1,3) 0
f(1,4) 1
x(2,1,4) 0
f(1,5) 1
x(2,1,5) 0
f(1,6) 1
x(2,1,6) 0
f(1,7) 1
x(2,1,7) 0
f(1,8) 1
x(2,1,8) 0
f(1,9) 0.5
x(2,1,9) 0
x(1,1,9) 0.5
f(1,10) 0.5
x(2,1,10) 0
x(1,1,10) 0
f(1,11) 0.5
x(2,1,11) 0
x(1,1,11) 0
f(1,12) 0.5
x(2,1,12) 0
x(1,1,12) 0
x(3,1,12) 0
f(1,13) 0.5
x(2,1,13) 0
x(1,1,13) 0
x(3,1,13) 0
f(1,14) 0
x(2,1,14) 0
x(1,1,14) 0
x(3,1,14) 0.5
f(1,15) 0
x(2,1,15) 0
x(1,1,15) 0
x(3,1,15) 0
f(1,16) 0
x(2,1,16) 0
x(1,1,16) 0
x(3,1,16) 0
f(1,17) 0.5
x(2,1,17) 0
x(1,1,17) 0
x(3,1,17) 0
f(1,18) 0.5
x(2,1,18) 0
x(1,1,18) 0
x(3,1,18) 0
f(1,19) 0.5
x(2,1,19) 0
x(1,1,19) 0
x(3,1,19) 0
f(1,20) 0.5
x(2,1,20) 0
x(1,1,20) 0
x(3,1,20) 0
f(1,21) 0.5
x(1,1,21) 0
x(3,1,21) 0
f(1,22) 0
x(1,1,22) 0
x(3,1,22) 0.5
f(1,23) 0
x(1,1,23) 0
x(3,1,23) 0
f(1,24) 0
x(1,1,24) 0.5
x(3,1,24) 0
f(1,25) 0
x(1,1,25) 0
x(3,1,25) 0
f(1,26) 0
x(1,1,26) 0
x(3,1,26) 0
f(1,27) 0
x(1,1,27) 0
x(3,1,27) 0
f(1,28) 0
x(1,1,28) 0
x(3,1,28) 0
f(1,29) 0
x(1,1,29) 0
x(3,1,29) 0
f(1,30) 0
x(1,1,30) 0
x(3,1,30) 0
f(1,31) 0
x(1,1,31) 0
f(1,32) 1
x(1,1,32) 0
f(1,33) 1
f(1,34) 1
f(1,35) 1
f(1,36) 1
f(1,37) 1
f(1,38) 1
f(1,39) 1
f(1,40) 1
f(2,1) 1
f(2,2) 1
x(2,2,2) 0
f(2,3) 1
x(2,2,3) 0
f(2,4) 1
x(2,2,4) 0
f(2,5) 0
x(1,2,5) 0.5
x(2,2,5) 0.5
f(2,6) 0
x(1,2,6) 0
x(2,2,6) 0
f(2,7) 0
x(1,2,7) 0
x(2,2,7) 0
x(3,2,7) 0
f(2,8) 0
x(1,2,8) 0
x(2,2,8) 0
x(3,2,8) 0
f(2,9) 0
x(1,2,9) 0
x(2,2,9) 0
x(3,2,9) 0.5
f(2,10) 0
x(1,2,10) 0
x(2,2,10) 0
x(3,2,10) 0
f(2,11) 0
x(1,2,11) 0
x(2,2,11) 0
x(3,2,11) 0
f(2,12) 0
x(1,2,12) 0
x(2,2,12) 0
x(3,2,12) 0
f(2,13) 0
x(1,2,13) 0
x(2,2,13) 0
x(3,2,13) 0
f(2,14) 0
x(1,2,14) 0
x(2,2,14) 0.5
x(3,2,14) 0
f(2,15) 0
x(1,2,15) 0
x(2,2,15) 0
x(3,2,15) 0.5
f(2,16) 0
x(1,2,16) 0
x(2,2,16) 0
x(3,2,16) 0
f(2,17) 0
x(1,2,17) 0
x(2,2,17) 0
x(3,2,17) 0
f(2,18) 0
x(1,2,18) 0
x(2,2,18) 0
x(3,2,18) 0
f(2,19) 0
x(1,2,19) 0
x(2,2,19) 0
x(3,2,19) 0
f(2,20) 0
x(1,2,20) 0.5
x(2,2,20) 0
x(3,2,20) 0
f(2,21) 0
x(1,2,21) 0
x(2,2,21) 0
x(3,2,21) 0
f(2,22) 0
x(1,2,22) 0
x(2,2,22) 0
x(3,2,22) 0
f(2,23) 0
x(1,2,23) 0
x(3,2,23) 0
f(2,24) 1
x(1,2,24) 0
x(3,2,24) 0
f(2,25) 1
x(1,2,25) 0
x(3,2,25) 0
f(2,26) 1
x(1,2,26) 0
f(2,27) 1
x(1,2,27) 0
f(2,28) 1
x(1,2,28) 0
f(2,29) 1
f(2,30) 1
f(2,31) 1
f(2,32) 1
f(2,33) 1
f(2,34) 1
f(2,35) 1
f(2,36) 1
f(2,37) 1
f(2,38) 1
f(2,39) 1
f(2,40) 1
x(1,3,1) 0
x(3,3,1) 0
f(3,1) 0.5
x(1,3,2) 0
x(3,3,2) 0.5
f(3,2) 0
x(1,3,3) 0
x(3,3,3) 0
f(3,3) 0
x(1,3,4) 0
x(3,3,4) 0
f(3,4) 0
x(1,3,5) 0
x(3,3,5) 0.5
f(3,5) 0
x(1,3,6) 0
x(3,3,6) 0
f(3,6) 0
x(1,3,7) 0
x(3,3,7) 0
f(3,7) 0
x(1,3,8) 0
x(3,3,8) 0
f(3,8) 0
x(1,3,9) 0.5
x(3,3,9) 0
f(3,9) 0
x(1,3,10) 0
x(3,3,10) 0
f(3,10) 0
x(1,3,11) 0
x(3,3,11) 0
f(3,11) 0
x(1,3,12) 0
x(3,3,12) 0
f(3,12) 0.5
x(2,3,12) 0
x(1,3,13) 0
x(3,3,13) 0
f(3,13) 0.5
x(2,3,13) 0
x(1,3,14) 0
x(3,3,14) 0
f(3,14) 1
x(2,3,14) 0
x(1,3,15) 0
x(3,3,15) 0
f(3,15) 1
x(2,3,15) 0
x(1,3,16) 0
x(3,3,16) 0
f(3,16) 1
x(2,3,16) 0
x(1,3,17) 0
x(3,3,17) 0
f(3,17) 1
x(2,3,17) 0
x(1,3,18) 0
x(3,3,18) 0
f(3,18) 0.5
x(2,3,18) 0.5
x(1,3,19) 0
f(3,19) 0.5
x(2,3,19) 0
x(1,3,20) 0
f(3,20) 0.5
x(2,3,20) 0
x(1,3,21) 0
f(3,21) 0.5
x(2,3,21) 0
x(1,3,22) 0
f(3,22) 0.5
x(2,3,22) 0
x(1,3,23) 0
f(3,23) 0.5
x(2,3,23) 0
f(3,24) 0
x(2,3,24) 0.5
f(3,25) 0
x(2,3,25) 0
f(3,26) 0.5
x(2,3,26) 0
f(3,27) 0.5
x(2,3,27) 0
f(3,28) 0.5
x(2,3,28) 0
f(3,29) 0.5
x(2,3,29) 0
f(3,30) 0.5
x(2,3,30) 0
f(3,31) 0.5
x(2,3,31) 0
f(3,32) 1
x(2,3,32) 0
f(3,33) 1
f(3,34) 1
f(3,35) 1
f(3,36) 1
f(3,37) 1
f(3,38) 1
f(3,39) 1
f(3,40) 1
e(1,3,0) 0.5
e(2,1,0) 0
e(3,3,0) 1
e(1,3,1) 0.5
e(1,3,2) 0.5
e(1,3,3) 0.5
e(1,3,4) 0.5
e(1,3,5) 0.5
e(1,3,6) 0.5
e(1,3,7) 0.5
e(1,3,8) 0.5
e(1,3,9) 0
e(1,3,10) 0
e(1,3,11) 0
e(1,3,12) 0
e(1,3,13) 0
e(1,3,14) 0
e(1,3,15) 0
e(1,3,16) 0
e(1,3,17) 0
e(1,3,18) 0
e(1,3,19) 0
e(1,3,20) 0
e(1,3,21) 0
e(1,3,22) 0
e(1,3,23) 0
e(2,1,1) 0
e(2,1,2) 0
e(2,1,3) 0
e(2,1,4) 0
e(2,1,5) 0
e(2,1,6) 0
e(2,1,7) 0
e(2,1,8) 0
e(2,1,9) 0
e(2,1,10) 0
e(2,1,11) 0
e(2,1,12) 0
e(2,1,13) 0
e(2,1,14) 0
e(2,1,15) 0
e(2,1,16) 0
e(2,1,17) 0
e(2,1,18) 0
e(2,1,19) 0
e(2,1,20) 0
e(3,3,1) 1
e(3,3,2) 0.5
e(3,3,3) 0.5
e(3,3,4) 0.5
e(3,3,5) 0
e(3,3,6) 0
e(3,3,7) 0
e(3,3,8) 0
e(3,3,9) 0
e(3,3,10) 0
e(3,3,11) 0
e(3,3,12) 0
e(3,3,13) 0
e(3,3,14) 0
e(3,3,15) 0
e(3,3,16) 0
e(3,3,17) 0
e(3,3,18) 0
e(1,2,5) 0
e(1,2,6) 0
e(1,2,7) 0
e(1,2,8) 0
e(1,2,9) 0
e(1,2,10) 0
e(1,2,11) 0
e(1,2,12) 0
e(1,2,13) 0
e(1,2,14) 0.5
e(1,2,15) 0.5
e(1,2,16) 0.5
e(1,2,17) 0.5
e(1,2,18) 0.5
e(1,2,19) 0.5
e(1,2,20) 0
e(1,2,21) 0
e(1,2,22) 0
e(1,2,23) 0
e(1,2,24) 0
e(1,2,25) 0
e(1,2,26) 0
e(1,2,27) 0
e(1,2,28) 0
e(2,2,2) 1
e(2,2,3) 1
e(2,2,4) 1
e(2,2,5) 0.5
e(2,2,6) 0.5
e(2,2,7) 0.5
e(2,2,8) 0.5
e(2,2,9) 0.5
e(2,2,10) 0.5
e(2,2,11) 0.5
e(2,2,12) 0.5
e(2,2,13) 0.5
e(2,2,14) 0
e(2,2,15) 0
e(2,2,16) 0
e(2,2,17) 0
e(2,2,18) 0
e(2,2,19) 0
e(2,2,20) 0
e(2,2,21) 0
e(2,2,22) 0
e(3,2,7) 0
e(3,2,8) 0
e(3,2,9) 0
e(3,2,10) 0
e(3,2,11) 0
e(3,2,12) 0.5
e(3,2,13) 0.5
e(3,2,14) 0.5
e(3,2,15) 0
e(3,2,16) 0
e(3,2,17) 0
e(3,2,18) 0
e(3,2,19) 0
e(3,2,20) 0
e(3,2,21) 0
e(3,2,22) 0
e(3,2,23) 0
e(3,2,24) 0
e(3,2,25) 0
e(1,1,9) 0
e(1,1,10) 0
e(1,1,11) 0
e(1,1,12) 0
e(1,1,13) 0
e(1,1,14) 0
e(1,1,15) 0
e(1,1,16) 0
e(1,1,17) 0
e(1,1,18) 0
e(1,1,19) 0
e(1,1,20) 0
e(1,1,21) 0
e(1,1,22) 0
e(1,1,23) 0
e(1,1,24) 0
e(1,1,25) 0
e(1,1,26) 0
e(1,1,27) 0
e(1,1,28) 0
e(1,1,29) 0
e(1,1,30) 0
e(1,1,31) 0
e(1,1,32) 0
e(2,3,12) 0
e(2,3,13) 0
e(2,3,14) 0
e(2,3,15) 0.5
e(2,3,16) 0.5
e(2,3,17) 0.5
e(2,3,18) 0
e(2,3,19) 0
e(2,3,20) 0
e(2,3,21) 0
e(2,3,22) 0
e(2,3,23) 0
e(2,3,24) 0
e(2,3,25) 0
e(2,3,26) 0
e(2,3,27) 0
e(2,3,28) 0
e(2,3,29) 0
e(2,3,30) 0
e(2,3,31) 0
e(2,3,32) 0
e(3,1,12) 0
e(3,1,13) 0
e(3,1,14) 0
e(3,1,15) 0
e(3,1,16) 0
e(3,1,17) 0
e(3,1,18) 0
e(3,1,19) 0
e(3,1,20) 0.5
e(3,1,21) 0.5
e(3,1,22) 0
e(3,1,23) 0
e(3,1,24) 0
e(3,1,25) 0
e(3,1,26) 0
e(3,1,27) 0
e(3,1,28) 0
e(3,1,29) 0
e(3,1,30) 0
